cost: 707.72
Route 1:           0   31   22   29   41    3   27   36   14    0
Route 2:           0   35   39   34   21   13   20   32    6    2   23   30    9   33   43   25   19    0
Route 3:           0   50   28   17   46   37    7    4   16   42   40   38   11    0
Route 4:           0   49   24   15    1   47   12   44   48   18   10    5   45    8   26    0
